study/exp-portion-fine-grain-4v100/run-logs-backup-12-06/samgraph_cache_graphsage_kKHop2_papers100M-undir_coll_cache_asymm_link_2_cache_rate_020_batch_size_8000_concurrent_impl_MPS.log
config:eval_tsp="2022-12-05 18:39:07"
config:arch=arch5
config:num_train_worker=3
config:num_sample_worker=1
config:sample_type=khop2
config:root_path=/nvme/graph-learning-copy/samgraph/
config:dataset=papers100M-undir
config:pipeline=False
config:cache_policy=coll_cache_asymm_link
config:cache_percentage=0.2
config:num_epoch=4
config:batch_size=8000
config:num_hidden=256
config:max_sampling_jobs=1
config:max_copying_jobs=1
config:barriered_epoch=1
config:presample_epoch=2
config:omp_thread_num=13
config:unsupervised=False
config:amp=True
config:rolling=0
config:fanout=[25, 10]
config:lr=0.003
config:dropout=0.5
config:single_gpu=False
config:max_num_step=100000
config:validate_configs=False
config:report_acc=0
config:dataset_path=/nvme/graph-learning-copy/samgraph/papers100M-undir
config:torch_thread_num=13
config:train_workers=['cuda:0', 'cuda:1', 'cuda:2']
config:sample_workers=['cuda:3']
config:num_fanout=2
config:num_layer=2
config:_run_mode=RunMode.FGNN
config:_log_level=warn
config:_profile_level=3
config:_empty_feat=0
config:_arch=5
config:_sample_type=5
config:_cache_policy=13
test_result:init:input_scale_factor=1.1
0 :  {link #0 : 1}, {link #1 : 2},
1 :  {link #0 : 2}, {link #1 : 0},
2 :  {link #0 : 0}, {link #1 : 1},
0 :  {link #0 : 1}, {link #1 : 2},
1 :  {link #0 : 2}, {link #1 : 0},
2 :  {link #0 : 0}, {link #1 : 1},
0 :  {link #0 : 1}, {link #1 : 2},
1 :  {link #0 : 2}, {link #1 : 0},
2 :  {link #0 : 0}, {link #1 : 1},
Set parameter WLSAccessID
Set parameter WLSSecret
Set parameter LicenseID
Set parameter TimeLimit to value 200
Set parameter MIPGap to value 0.05
Set parameter GomoryPasses to value 0
Set parameter Aggregate to value 0
Set parameter LogFile to value "cppsolver.log"
Set parameter Threads to value 26
Academic license - for non-commercial use only - registered to xiaoniu.sxn@sjtu.edu.cn
Gurobi Optimizer version 9.5.1 build v9.5.1rc2 (linux64)
Thread count: 40 physical cores, 80 logical processors, using up to 26 threads
Academic license - for non-commercial use only - registered to xiaoniu.sxn@sjtu.edu.cn
Optimize a model with 21372 rows, 10174 columns and 64086 nonzeros
Model fingerprint: 0xc7141c4c
Variable types: 4 continuous, 10170 integer (10170 binary)
Coefficient statistics:
  Matrix range     [2e-04, 4e+02]
  Objective range  [1e+00, 1e+00]
  Bounds range     [1e+00, 1e+00]
  RHS range        [1e+00, 2e+02]
Found heuristic solution: objective 2.000000e+09
Presolve removed 12206 rows and 0 columns
Presolve time: 0.09s
Presolved: 9166 rows, 10174 columns, 37642 nonzeros
Found heuristic solution: objective 6684.8760384
Variable types: 4 continuous, 10170 integer (10170 binary)

Root relaxation: objective 2.966999e+02, 7435 iterations, 0.60 seconds (0.64 work units)

    Nodes    |    Current Node    |     Objective Bounds      |     Work
 Expl Unexpl |  Obj  Depth IntInf | Incumbent    BestBd   Gap | It/Node Time

     0     0  296.69989    0    4 6684.87604  296.69989  95.6%     -    0s
H    0     0                     296.7851724  296.69989  0.03%     -    0s

Explored 1 nodes (7435 simplex iterations) in 0.74 seconds (0.74 work units)
Thread count was 26 (of 80 available processors)

Solution count 3: 296.785 6684.88 2e+09 

Optimal solution found (tolerance 5.00e-02)
Best objective 2.967851724162e+02, best bound 2.966998895956e+02, gap 0.0287%
coll_cache:optimal_local_rate=0.987381,0.987381,0.987381,
coll_cache:optimal_remote_rate=1.4766e-14,1.4766e-14,1.4766e-14,
coll_cache:optimal_cpu_rate=0.0126195,0.0126195,0.0126195,
z=296.785
test_result:init:feat_nbytes=56862697472
test_result:init:cache_nbytes=10352720384
test_result:init:feat_nbytes=56862697472
test_result:init:cache_nbytes=10352720384
test_result:init:feat_nbytes=56862697472
test_result:init:cache_nbytes=10352720384
0 :  {link #0 : 1}, {link #1 : 2},
1 :  {link #0 : 2}, {link #1 : 0},
2 :  {link #0 : 0}, {link #1 : 1},
0 :  {link #0 : 1}, {link #1 : 2},
1 :  {link #0 : 2}, {link #1 : 0},
2 :  {link #0 : 0}, {link #1 : 1},
0 :  {link #0 : 1}, {link #1 : 2},
1 :  {link #0 : 2}, {link #1 : 0},
2 :  {link #0 : 0}, {link #1 : 1},
Set parameter WLSAccessID
Set parameter WLSSecret
Set parameter LicenseID
Set parameter TimeLimit to value 200
Set parameter MIPGap to value 0.05
Set parameter GomoryPasses to value 0
Set parameter Aggregate to value 0
Set parameter LogFile to value "cppsolver.log"
Set parameter Threads to value 26
Academic license - for non-commercial use only - registered to xiaoniu.sxn@sjtu.edu.cn
Gurobi Optimizer version 9.5.1 build v9.5.1rc2 (linux64)
Thread count: 40 physical cores, 80 logical processors, using up to 26 threads
Academic license - for non-commercial use only - registered to xiaoniu.sxn@sjtu.edu.cn
Optimize a model with 21372 rows, 10174 columns and 64086 nonzeros
Model fingerprint: 0xd0d4bad2
Variable types: 4 continuous, 10170 integer (10170 binary)
Coefficient statistics:
  Matrix range     [2e-04, 4e+02]
  Objective range  [1e+00, 1e+00]
  Bounds range     [1e+00, 1e+00]
  RHS range        [1e+00, 2e+02]
Found heuristic solution: objective 2.000000e+09
Presolve removed 12206 rows and 0 columns
Presolve time: 0.08s
Presolved: 9166 rows, 10174 columns, 37642 nonzeros
Found heuristic solution: objective 5933.5486973
Variable types: 4 continuous, 10170 integer (10170 binary)

Root relaxation: objective 2.966999e+02, 6822 iterations, 0.47 seconds (0.50 work units)

    Nodes    |    Current Node    |     Objective Bounds      |     Work
 Expl Unexpl |  Obj  Depth IntInf | Incumbent    BestBd   Gap | It/Node Time

     0     0  296.69989    0    4 5933.54870  296.69989  95.0%     -    0s
H    0     0                     296.7029469  296.69989  0.00%     -    0s

Explored 1 nodes (6822 simplex iterations) in 0.60 seconds (0.61 work units)
Thread count was 26 (of 80 available processors)

Solution count 3: 296.703 5933.55 2e+09 

Optimal solution found (tolerance 5.00e-02)
Best objective 2.967029469109e+02, best bound 2.966998895956e+02, gap 0.0010%
coll_cache:optimal_local_rate=0.987107,0.987107,0.987107,
coll_cache:optimal_remote_rate=1.90958e-14,1.90958e-14,1.90958e-14,
coll_cache:optimal_cpu_rate=0.0128931,0.0128931,0.0128931,
z=296.703
test_result:init:cache_nbytes=0
test_result:init:cache_nbytes=0
test_result:init:cache_nbytes=0
[Train  Worker 2/3] Started with PID 146753(Tesla V100-SXM2-16GB)
[Train  Worker 2] run train for 4 epochs with 153 steps
[Train  Worker 2] Avg Epoch Time 0.6842 | Train Total Time(Profiler) 0.4208 | Copy Time 0.2583
[Train  Worker 1/3] Started with PID 146751(Tesla V100-SXM2-16GB)
[Train  Worker 1] run train for 4 epochs with 153 steps
[Train  Worker 1] Avg Epoch Time 0.6842 | Train Total Time(Profiler) 0.4213 | Copy Time 0.2581
[Train  Worker 0/3] Started with PID 146749(Tesla V100-SXM2-16GB)
[Train  Worker 0] run train for 4 epochs with 153 steps
Epoch 00000 | Epoch Time 1.8632 | Total Train Time(Profiler) 1.5832 | Copy Time 0.2741
Epoch 00001 | Epoch Time 0.6822 | Total Train Time(Profiler) 0.4208 | Copy Time 0.2565
Epoch 00002 | Epoch Time 0.6830 | Total Train Time(Profiler) 0.4226 | Copy Time 0.2557
Epoch 00003 | Epoch Time 0.6874 | Total Train Time(Profiler) 0.4261 | Copy Time 0.2564
[Train  Worker 0] Avg Epoch Time 0.6842 | Train Total Time(Profiler) 0.4232 | Copy Time 0.2562
    [Step(average) Profiler Level 1 E3 S152]
        L1  sample           0.005590 | send           0.001403
        L1  recv             0.000000 | copy           0.000000 | convert time 0.000000 | train  0.000000
        L1  feature nbytes 0.00 Bytes | label nbytes 0.00 Bytes
        L1  id nbytes      0.00 Bytes | graph nbytes 0.00 Bytes
        L1  miss nbytes    0.00 Bytes | remote nbytes 0.00 Bytes
        L1  num nodes         1100950 | num samples     1712900
    [Step(average) Profiler Level 2 E3 S152]
        L2  shuffle     0.000269 | core sample  0.002040 | id remap        0.003178
        L2  graph copy  0.000000 | id copy      0.000000 | cache feat copy 0.000000
        L2  last layer sample time 0.000317 | size 72442.949891
    [Step(average) Profiler Level 3 E3 S152]
        L3  khop sample coo  0.001725 | khop sort coo      0.000000 | khop count edge     0.000038 | khop compact edge 0.000239
        L3  walk sample coo  0.000000 | walk topk total    0.000000 | walk topk step1     0.000000 | walk topk step2   0.000000
        L3  walk topk step3  0.000000 | walk topk step4    0.000000 | walk topk step5     0.000000
        L3  walk topk step6  0.000000 | walk topk step7    0.000000
        L3  remap unique     0.000000 | remap populate     0.002643 | remap mapnode       0.000000 | remap mapedge     0.000535
        L3  cache get_index  0.000000 | cache copy_index   0.000000 | cache extract_miss  0.000000
        L3  cache copy_miss  0.000000 | cache combine_miss 0.000000 | cache combine cache 0.000000 | cache combine remote 0.000000
        L3  label extract  0.000000
    [Init Profiler Level 1]
        L1  init     5.3871 | sampler init    12.2009 | trainer init 0.0000
    [Init Profiler Level 2]
        L2  load ds         8.4965 | init queue           3.4918
        L2  presample       3.8821 | build interal ds     1.7138
        L2  build cache     0.0000
    [Init Profiler Level 3]
        L3  load dataset: mmap     5.3830 | copy         3.1134
        L3  dist queue: alloc      0.0017 | pin          3.4900 | push     0.0000
        L3  presample: init        0.2943
        L3  presample: sample      1.6990 | copy         0.1069
        L3  presample: count       1.1336 | sort         0.2774
        L3  presample: reset       0.0010 | get rank     0.0385
        L3  internal: cuda ctx     1.4650 | cuda stream     0.2433
[Sample Worker 0/1] Started with PID 146748(Tesla V100-SXM2-16GB)
[Sample Worker 0] run sample for 4 epochs with 153 steps
[Sample Worker 0] Avg Sample Total Time 1.0714 | Sampler Total Time(Profiler) 1.0699
test_result:sample_time=0.8552
test_result:get_cache_miss_index_time=0.0000
test_result:enqueue_samples_time=0.2147
test_result:epoch_time:sample_total=1.0714
[CUDA] cuda0: usage: 15.61 GB
[SAM] cuda0 data alloc        : 0.00 Bytes
[SAM] cuda0 workspace         : 1.22 GB
[SAM] cuda0 workspace reserve : 618.34 MB
[SAM] cuda0 total             : 1.22 GB
    [Step(average) Profiler Level 1 E3 S152]
        L1  sample           0.000000 | send           0.000000
        L1  recv             0.001558 | copy           0.005050 | convert time 0.000400 | train  0.007869
        L1  feature nbytes  537.57 MB | label nbytes   62.50 KB
        L1  id nbytes      0.00 Bytes | graph nbytes 0.00 Bytes
        L1  miss nbytes      13.98 MB | remote nbytes 0.00 Bytes
        L1  num nodes               0 | num samples           0
    [Step(average) Profiler Level 2 E3 S152]
        L2  shuffle     0.000000 | core sample  0.000000 | id remap        0.000000
        L2  graph copy  0.000003 | id copy      0.000000 | cache feat copy 0.003488
        L2  last layer sample time 0.000000 | size 0.000000
    [Step(average) Profiler Level 3 E3 S152]
        L3  khop sample coo  0.000000 | khop sort coo      0.000000 | khop count edge     0.000000 | khop compact edge 0.000000
        L3  walk sample coo  0.000000 | walk topk total    0.000000 | walk topk step1     0.000000 | walk topk step2   0.000000
        L3  walk topk step3  0.000000 | walk topk step4    0.000000 | walk topk step5     0.000000
        L3  walk topk step6  0.000000 | walk topk step7    0.000000
        L3  remap unique     0.000000 | remap populate     0.000000 | remap mapnode       0.000000 | remap mapedge     0.000000
        L3  cache get_index  0.000702 | cache copy_index   0.000000 | cache extract_miss  0.000000
        L3  cache copy_miss  0.000000 | cache combine_miss 0.001805 | cache combine cache 0.002601 | cache combine remote 0.000000
        L3  label extract  0.000174
    [Init Profiler Level 1]
        L1  init     5.3871 | sampler init     0.0000 | trainer init 64.9498
    [Init Profiler Level 2]
        L2  load ds         5.3830 | init queue           3.5552
        L2  presample       0.0000 | build interal ds     1.5438
        L2  build cache    59.8514
    [Init Profiler Level 3]
        L3  load dataset: mmap     5.3830 | copy         0.0000
        L3  dist queue: alloc      0.0017 | pin          3.5535 | push     0.0000
        L3  presample: init        0.0000
        L3  presample: sample      0.0000 | copy         0.0000
        L3  presample: count       0.0000 | sort         0.0000
        L3  presample: reset       0.0000 | get rank     0.0000
        L3  internal: cuda ctx     1.5438 | cuda stream     0.0000
|===========================================================================|
|                  PyTorch CUDA memory summary, device ID 0                 |
|---------------------------------------------------------------------------|
|            CUDA OOMs: 0            |        cudaMalloc retries: 0         |
|===========================================================================|
|        Metric         | Cur Usage  | Peak Usage | Tot Alloc  | Tot Freed  |
|---------------------------------------------------------------------------|
| Allocated memory      |   22884 KB |  402986 KB |  284827 MB |  284805 MB |
|       from large pool |   18210 KB |  399600 KB |  282714 MB |  282697 MB |
|       from small pool |    4674 KB |    7152 KB |    2112 MB |    2108 MB |
|---------------------------------------------------------------------------|
| Active memory         |   22884 KB |  402986 KB |  284827 MB |  284805 MB |
|       from large pool |   18210 KB |  399600 KB |  282714 MB |  282697 MB |
|       from small pool |    4674 KB |    7152 KB |    2112 MB |    2108 MB |
|---------------------------------------------------------------------------|
| GPU reserved memory   |  579584 KB |  579584 KB |  579584 KB |       0 B  |
|       from large pool |  569344 KB |  569344 KB |  569344 KB |       0 B  |
|       from small pool |   10240 KB |   10240 KB |   10240 KB |       0 B  |
|---------------------------------------------------------------------------|
| Non-releasable memory |   24219 KB |  368800 KB |  340302 MB |  340279 MB |
|       from large pool |   22750 KB |  366980 KB |  337890 MB |  337867 MB |
|       from small pool |    1469 KB |    3606 KB |    2412 MB |    2411 MB |
|---------------------------------------------------------------------------|
| Allocations           |      38    |      51    |   22680    |   22642    |
|       from large pool |       3    |      14    |    8976    |    8973    |
|       from small pool |      35    |      39    |   13704    |   13669    |
|---------------------------------------------------------------------------|
| Active allocs         |      39    |      51    |   22680    |   22641    |
|       from large pool |       3    |      14    |    8976    |    8973    |
|       from small pool |      36    |      39    |   13704    |   13668    |
|---------------------------------------------------------------------------|
| GPU reserved segments |      14    |      14    |      14    |       0    |
|       from large pool |       9    |       9    |       9    |       0    |
|       from small pool |       5    |       5    |       5    |       0    |
|---------------------------------------------------------------------------|
| Non-releasable allocs |      13    |      25    |   10384    |   10371    |
|       from large pool |       4    |      12    |    5097    |    5093    |
|       from small pool |       9    |      17    |    5287    |    5278    |
|---------------------------------------------------------------------------|
| Oversize allocations  |       0    |       0    |       0    |       0    |
|---------------------------------------------------------------------------|
| Oversize GPU segments |       0    |       0    |       0    |       0    |
|===========================================================================|

test_result:epoch_time:copy_time=0.2562
test_result:convert_time=0.0202
test_result:train_time=0.4030
test_result:epoch_time:train_total=0.4232
test_result:cache_percentage=0.2000
test_result:cache_hit_rate=1.0000
test_result:run_time=8.2295
